! Series R-L-C bandpass 2-port (R=5 ohm, L=100 nH, C=10 pF), shunt 0.5 pF
! Resonance near 1/(2*pi*sqrt(LC)) ~ 159 MHz. Reference impedance 50 ohm.
# HZ S RI R 50
1.000000e+05 +9.999996e-01 -6.597344e-04 +4.342627e-07 +6.283185e-04 +4.342627e-07 +6.283185e-04 +9.999996e-01 -6.597344e-04 
1.168952e+05 +9.999994e-01 -7.711977e-04 +5.933977e-07 +7.344740e-04 +5.933977e-07 +7.344740e-04 +9.999994e-01 -7.711977e-04 
1.366448e+05 +9.999992e-01 -9.014929e-04 +8.108474e-07 +8.585647e-04 +8.108474e-07 +8.585647e-04 +9.999992e-01 -9.014929e-04 
1.597312e+05 +9.999989e-01 -1.053802e-03 +1.107981e-06 +1.003621e-03 +1.107981e-06 +1.003621e-03 +9.999989e-01 -1.053802e-03 
1.867181e+05 +9.999985e-01 -1.231843e-03 +1.514000e-06 +1.173184e-03 +1.514000e-06 +1.173184e-03 +9.999985e-01 -1.231843e-03 
2.182645e+05 +9.999979e-01 -1.439965e-03 +2.068803e-06 +1.371396e-03 +2.068803e-06 +1.371396e-03 +9.999979e-01 -1.439965e-03 
2.551407e+05 +9.999972e-01 -1.683250e-03 +2.826914e-06 +1.603095e-03 +2.826914e-06 +1.603095e-03 +9.999972e-01 -1.683250e-03 
2.982471e+05 +9.999961e-01 -1.967638e-03 +3.862835e-06 +1.873941e-03 +3.862835e-06 +1.873941e-03 +9.999961e-01 -1.967638e-03 
3.486365e+05 +9.999947e-01 -2.300073e-03 +5.278370e-06 +2.190546e-03 +5.278370e-06 +2.190546e-03 +9.999947e-01 -2.300073e-03 
4.075393e+05 +9.999928e-01 -2.688674e-03 +7.212631e-06 +2.560642e-03 +7.212631e-06 +2.560642e-03 +9.999928e-01 -2.688674e-03 
4.763938e+05 +9.999901e-01 -3.142929e-03 +9.855706e-06 +2.993266e-03 +9.855706e-06 +2.993266e-03 +9.999901e-01 -3.142929e-03 
5.568814e+05 +9.999865e-01 -3.673931e-03 +1.346735e-05 +3.498981e-03 +1.346735e-05 +3.498981e-03 +9.999865e-01 -3.673931e-03 
6.509675e+05 +9.999816e-01 -4.294645e-03 +1.840250e-05 +4.090137e-03 +1.840250e-05 +4.090137e-03 +9.999816e-01 -4.294645e-03 
7.609497e+05 +9.999748e-01 -5.020227e-03 +2.514619e-05 +4.781168e-03 +2.514619e-05 +4.781168e-03 +9.999748e-01 -5.020227e-03 
8.895135e+05 +9.999656e-01 -5.868395e-03 +3.436120e-05 +5.588946e-03 +3.436120e-05 +5.588946e-03 +9.999656e-01 -5.868395e-03 
1.039798e+06 +9.999530e-01 -6.859858e-03 +4.695324e-05 +6.533195e-03 +4.695324e-05 +6.533195e-03 +9.999530e-01 -6.859858e-03 
1.215474e+06 +9.999358e-01 -8.018821e-03 +6.415998e-05 +7.636969e-03 +6.415998e-05 +7.636969e-03 +9.999358e-01 -8.018821e-03 
1.420831e+06 +9.999122e-01 -9.373581e-03 +8.767280e-05 +8.927214e-03 +8.767280e-05 +8.927214e-03 +9.999122e-01 -9.373581e-03 
1.660883e+06 +9.998801e-01 -1.095721e-02 +1.198032e-04 +1.043543e-02 +1.198032e-04 +1.043543e-02 +9.998801e-01 -1.095721e-02 
1.941492e+06 +9.998361e-01 -1.280836e-02 +1.637101e-04 +1.219842e-02 +1.637101e-04 +1.219842e-02 +9.998361e-01 -1.280836e-02 
2.269511e+06 +9.997760e-01 -1.497221e-02 +2.237111e-04 +1.425923e-02 +2.237111e-04 +1.425923e-02 +9.997760e-01 -1.497221e-02 
2.652948e+06 +9.996939e-01 -1.750157e-02 +3.057079e-04 +1.666812e-02 +3.057079e-04 +1.666812e-02 +9.996939e-01 -1.750157e-02 
3.101169e+06 +9.995818e-01 -2.045813e-02 +4.177681e-04 +1.948387e-02 +4.177681e-04 +1.948387e-02 +9.995818e-01 -2.045813e-02 
3.625117e+06 +9.994284e-01 -2.391399e-02 +5.709221e-04 +2.277513e-02 +5.709221e-04 +2.277513e-02 +9.994284e-01 -2.391399e-02 
4.237587e+06 +9.992189e-01 -2.795337e-02 +7.802542e-04 +2.662210e-02 +7.802542e-04 +2.662210e-02 +9.992189e-01 -2.795337e-02 
4.953535e+06 +9.989324e-01 -3.267466e-02 +1.066399e-03 +3.111846e-02 +1.066399e-03 +3.111846e-02 +9.989324e-01 -3.267466e-02 
5.790444e+06 +9.985408e-01 -3.819272e-02 +1.457592e-03 +3.637360e-02 +1.457592e-03 +3.637360e-02 +9.985408e-01 -3.819272e-02 
6.768750e+06 +9.980052e-01 -4.464163e-02 +1.992496e-03 +4.251517e-02 +1.992496e-03 +4.251517e-02 +9.980052e-01 -4.464163e-02 
7.912343e+06 +9.972728e-01 -5.217776e-02 +2.724084e-03 +4.969203e-02 +2.724084e-03 +4.969203e-02 +9.972728e-01 -5.217776e-02 
9.249147e+06 +9.962708e-01 -6.098338e-02 +3.725009e-03 +5.807768e-02 +3.725009e-03 +5.807768e-02 +9.962708e-01 -6.098338e-02 
1.081181e+07 +9.948992e-01 -7.127059e-02 +5.095050e-03 +6.787397e-02 +5.095050e-03 +6.787397e-02 +9.948992e-01 -7.127059e-02 
1.263848e+07 +9.930206e-01 -8.328584e-02 +6.971480e-03 +7.931536e-02 +6.971480e-03 +7.931536e-02 +9.930206e-01 -8.328584e-02 
1.477378e+07 +9.904456e-01 -9.731456e-02 +9.543614e-03 +9.267326e-02 +9.543614e-03 +9.267326e-02 +9.904456e-01 -9.731456e-02 
1.726983e+07 +9.869119e-01 -1.136859e-01 +1.307337e-02 +1.082605e-01 +1.307337e-02 +1.082605e-01 +9.869119e-01 -1.136859e-01 
2.018760e+07 +9.820553e-01 -1.327768e-01 +1.792461e-02 +1.264347e-01 +1.792461e-02 +1.264347e-01 +9.820553e-01 -1.327768e-01 
2.359833e+07 +9.753669e-01 -1.550133e-01 +2.460560e-02 +1.475997e-01 +2.460560e-02 +1.475997e-01 +9.753669e-01 -1.550133e-01 
2.758532e+07 +9.661313e-01 -1.808669e-01 +3.383116e-02 +1.722008e-01 +3.383116e-02 +1.722008e-01 +9.661313e-01 -1.808669e-01 
3.224591e+07 +9.533336e-01 -2.108380e-01 +4.661509e-02 +2.007079e-01 +4.661509e-02 +2.007079e-01 +9.533336e-01 -2.108380e-01 
3.769391e+07 +9.355207e-01 -2.454116e-01 +6.440915e-02 +2.335701e-01 +6.440915e-02 +2.335701e-01 +9.355207e-01 -2.454116e-01 
4.406236e+07 +9.105909e-01 -2.849528e-01 +8.931332e-02 +2.711109e-01 +8.931332e-02 +2.711109e-01 +9.105909e-01 -2.849528e-01 
5.150678e+07 +8.754794e-01 -3.294692e-01 +1.243897e-01 +3.132890e-01 +1.243897e-01 +3.132890e-01 +8.754794e-01 -3.294692e-01 
6.020894e+07 +8.257167e-01 -3.780812e-01 +1.741044e-01 +3.591677e-01 +1.741044e-01 +3.591677e-01 +8.257167e-01 -3.780812e-01 
7.038136e+07 +7.549177e-01 -4.278567e-01 +2.448379e-01 +4.057485e-01 +2.448379e-01 +4.057485e-01 +7.549177e-01 -4.278567e-01 
8.227241e+07 +6.546450e-01 -4.713477e-01 +3.450211e-01 +4.455054e-01 +3.450211e-01 +4.455054e-01 +6.546450e-01 -4.713477e-01 
9.617249e+07 +5.163713e-01 -4.919535e-01 +4.831724e-01 +4.617469e-01 +4.831724e-01 +4.617469e-01 +5.163713e-01 -4.919535e-01 
1.124210e+08 +3.404049e-01 -4.580743e-01 +6.589716e-01 +4.227672e-01 +6.589716e-01 +4.227672e-01 +3.404049e-01 -4.580743e-01 
1.314147e+08 +1.582344e-01 -3.272669e-01 +8.409137e-01 +2.859993e-01 +8.409137e-01 +2.859993e-01 +1.582344e-01 -3.272669e-01 
1.536175e+08 +5.119243e-02 -8.804500e-02 +9.476437e-01 +3.981273e-02 +9.476437e-01 +3.981273e-02 +5.119243e-02 -8.804500e-02 
1.795714e+08 +9.598704e-02 +1.811964e-01 +9.024230e-01 -2.375656e-01 +9.024230e-01 -2.375656e-01 +9.598704e-02 +1.811964e-01 
2.099104e+08 +2.647244e-01 +3.657235e-01 +7.331036e-01 -4.315971e-01 +7.331036e-01 -4.315971e-01 +2.647244e-01 +3.657235e-01 
2.453751e+08 +4.624510e-01 +4.320604e-01 +5.345822e-01 -5.090329e-01 +5.345822e-01 -5.090329e-01 +4.624510e-01 +4.320604e-01 
2.868317e+08 +6.289214e-01 +4.168132e-01 +3.670269e-01 -5.067415e-01 +3.670269e-01 -5.067415e-01 +6.289214e-01 +4.168132e-01 
3.352924e+08 +7.513685e-01 +3.616429e-01 +2.430991e-01 -4.666867e-01 +2.430991e-01 -4.666867e-01 +7.513685e-01 +3.616429e-01 
3.919407e+08 +8.366858e-01 +2.911886e-01 +1.557621e-01 -4.138555e-01 +1.557621e-01 -4.138555e-01 +8.366858e-01 +2.911886e-01 
4.581598e+08 +8.947139e-01 +2.167467e-01 +9.498081e-02 -3.599402e-01 +9.498081e-02 -3.599402e-01 +8.947139e-01 +2.167467e-01 
5.355667e+08 +9.333151e-01 +1.425853e-01 +5.262976e-02 -3.096561e-01 +5.262976e-02 -3.096561e-01 +9.333151e-01 +1.425853e-01 
6.260517e+08 +9.578694e-01 +6.973523e-02 +2.297440e-02 -2.645313e-01 +2.297440e-02 -2.645313e-01 +9.578694e-01 +6.973523e-02 
7.318242e+08 +9.717854e-01 -2.175105e-03 +2.130187e-03 -2.247357e-01 +2.130187e-03 -2.247357e-01 +9.717854e-01 -2.175105e-03 
8.554673e+08 +9.770389e-01 -7.408485e-02 -1.251246e-02 -1.899013e-01 -1.251246e-02 -1.899013e-01 +9.770389e-01 -7.408485e-02 
1.000000e+09 +9.745505e-01 -1.471133e-01 -2.271023e-02 -1.594811e-01 -2.271023e-02 -1.594811e-01 +9.745505e-01 -1.471133e-01 
